Route #1: 1 29 8 33 14 21 11 42 43 1
Route #2: 1 23 17 5 37 40 13 3 10 1
Route #3: 1 2 25 35 31 41 12 20 27 1
Route #4: 1 39 15 32 36 7 45 1
Route #5: 1 24 16 26 34 22 9 4 6 28 1
Route #6: 1 30 19 18 44 38 1
cost 1180.0632601287994